TCS_Benchmarks/redos_fix/regexlib2_output_distinct_798_797_90_0.txt
[0369]*
[0369]*